Be4P3Rb.cif                             
    1.000000000000000     
     3.6444689887972306    0.0000000000000000   -0.0000000000000000
     0.0000000000000000    3.6444689887972306    0.0000000000000000
     0.0000000000000000    0.0000000000000000    9.7838186140198786
   Rb   Be   P 
     1     4     3
Direct
  0.0000000000000000  0.0000000000000000  0.5000000000000000
  0.0000000000000000  0.5000000000000000  0.1429717726930022
  0.0000000000000000  0.5000000000000000  0.8570282273069978
  0.5000000000000000  0.0000000000000000  0.8570282273069978
  0.5000000000000000  0.0000000000000000  0.1429717726930022
  0.0000000000000000  0.0000000000000000  0.0000000000000000
  0.5000000000000000  0.5000000000000000  0.2606023148376337
  0.5000000000000000  0.5000000000000000  0.7393976851623663
 
  0.00000000E+00  0.00000000E+00  0.00000000E+00
  0.00000000E+00  0.00000000E+00  0.00000000E+00
  0.00000000E+00  0.00000000E+00  0.00000000E+00
  0.00000000E+00  0.00000000E+00  0.00000000E+00
  0.00000000E+00  0.00000000E+00  0.00000000E+00
  0.00000000E+00  0.00000000E+00  0.00000000E+00
  0.00000000E+00  0.00000000E+00  0.00000000E+00
  0.00000000E+00  0.00000000E+00  0.00000000E+00
