Automatically generated mesh
      282
Reciprocal lattice
    0.00000000000000    0.00000000000000    0.00000000000000             1
    0.14285714285715    0.00000000000000    0.00000000000000             4
    0.28571428571429    0.00000000000000    0.00000000000000             4
    0.42857142857143    0.00000000000000    0.00000000000000             4
    0.14285714285715    0.14285714285715    0.00000000000000             4
    0.28571428571429    0.14285714285715    0.00000000000000             8
    0.42857142857143    0.14285714285715    0.00000000000000             8
    0.28571428571429    0.28571428571429    0.00000000000000             4
    0.42857142857143    0.28571428571429    0.00000000000000             8
    0.42857142857143    0.42857142857143    0.00000000000000             4
    0.00000000000000    0.00000000000000    0.33333333333334             2
    0.14285714285715    0.00000000000000    0.33333333333334             8
    0.28571428571429    0.00000000000000    0.33333333333334             8
    0.42857142857143    0.00000000000000    0.33333333333334             8
    0.14285714285715    0.14285714285715    0.33333333333334             8
    0.28571428571429    0.14285714285715    0.33333333333334            16
    0.42857142857143    0.14285714285715    0.33333333333334            16
    0.28571428571429    0.28571428571429    0.33333333333334             8
    0.42857142857143    0.28571428571429    0.33333333333334            16
    0.42857142857143    0.42857142857143    0.33333333333334             8
    0.0000000000     0.0000000000     0.0000000000 0 \Gamma
    0.0000000000     0.0151515152     0.0000000000 0
    0.0000000000     0.0303030303     0.0000000000 0
    0.0000000000     0.0454545455     0.0000000000 0
    0.0000000000     0.0606060606     0.0000000000 0
    0.0000000000     0.0757575758     0.0000000000 0
    0.0000000000     0.0909090909     0.0000000000 0
    0.0000000000     0.1060606061     0.0000000000 0
    0.0000000000     0.1212121212     0.0000000000 0
    0.0000000000     0.1363636364     0.0000000000 0
    0.0000000000     0.1515151515     0.0000000000 0
    0.0000000000     0.1666666667     0.0000000000 0
    0.0000000000     0.1818181818     0.0000000000 0
    0.0000000000     0.1969696970     0.0000000000 0
    0.0000000000     0.2121212121     0.0000000000 0
    0.0000000000     0.2272727273     0.0000000000 0
    0.0000000000     0.2424242424     0.0000000000 0
    0.0000000000     0.2575757576     0.0000000000 0
    0.0000000000     0.2727272727     0.0000000000 0
    0.0000000000     0.2878787879     0.0000000000 0
    0.0000000000     0.3030303030     0.0000000000 0
    0.0000000000     0.3181818182     0.0000000000 0
    0.0000000000     0.3333333333     0.0000000000 0
    0.0000000000     0.3484848485     0.0000000000 0
    0.0000000000     0.3636363636     0.0000000000 0
    0.0000000000     0.3787878788     0.0000000000 0
    0.0000000000     0.3939393939     0.0000000000 0
    0.0000000000     0.4090909091     0.0000000000 0
    0.0000000000     0.4242424242     0.0000000000 0
    0.0000000000     0.4393939394     0.0000000000 0
    0.0000000000     0.4545454545     0.0000000000 0
    0.0000000000     0.4696969697     0.0000000000 0
    0.0000000000     0.4848484848     0.0000000000 0
    0.0000000000     0.5000000000     0.0000000000 0 X
    0.0151515152     0.5000000000     0.0000000000 0
    0.0303030303     0.5000000000     0.0000000000 0
    0.0454545455     0.5000000000     0.0000000000 0
    0.0606060606     0.5000000000     0.0000000000 0
    0.0757575758     0.5000000000     0.0000000000 0
    0.0909090909     0.5000000000     0.0000000000 0
    0.1060606061     0.5000000000     0.0000000000 0
    0.1212121212     0.5000000000     0.0000000000 0
    0.1363636364     0.5000000000     0.0000000000 0
    0.1515151515     0.5000000000     0.0000000000 0
    0.1666666667     0.5000000000     0.0000000000 0
    0.1818181818     0.5000000000     0.0000000000 0
    0.1969696970     0.5000000000     0.0000000000 0
    0.2121212121     0.5000000000     0.0000000000 0
    0.2272727273     0.5000000000     0.0000000000 0
    0.2424242424     0.5000000000     0.0000000000 0
    0.2575757576     0.5000000000     0.0000000000 0
    0.2727272727     0.5000000000     0.0000000000 0
    0.2878787879     0.5000000000     0.0000000000 0
    0.3030303030     0.5000000000     0.0000000000 0
    0.3181818182     0.5000000000     0.0000000000 0
    0.3333333333     0.5000000000     0.0000000000 0
    0.3484848485     0.5000000000     0.0000000000 0
    0.3636363636     0.5000000000     0.0000000000 0
    0.3787878788     0.5000000000     0.0000000000 0
    0.3939393939     0.5000000000     0.0000000000 0
    0.4090909091     0.5000000000     0.0000000000 0
    0.4242424242     0.5000000000     0.0000000000 0
    0.4393939394     0.5000000000     0.0000000000 0
    0.4545454545     0.5000000000     0.0000000000 0
    0.4696969697     0.5000000000     0.0000000000 0
    0.4848484848     0.5000000000     0.0000000000 0
    0.5000000000     0.5000000000     0.0000000000 0 M
    0.4893617021     0.4893617021     0.0000000000 0
    0.4787234043     0.4787234043     0.0000000000 0
    0.4680851064     0.4680851064     0.0000000000 0
    0.4574468085     0.4574468085     0.0000000000 0
    0.4468085106     0.4468085106     0.0000000000 0
    0.4361702128     0.4361702128     0.0000000000 0
    0.4255319149     0.4255319149     0.0000000000 0
    0.4148936170     0.4148936170     0.0000000000 0
    0.4042553191     0.4042553191     0.0000000000 0
    0.3936170213     0.3936170213     0.0000000000 0
    0.3829787234     0.3829787234     0.0000000000 0
    0.3723404255     0.3723404255     0.0000000000 0
    0.3617021277     0.3617021277     0.0000000000 0
    0.3510638298     0.3510638298     0.0000000000 0
    0.3404255319     0.3404255319     0.0000000000 0
    0.3297872340     0.3297872340     0.0000000000 0
    0.3191489362     0.3191489362     0.0000000000 0
    0.3085106383     0.3085106383     0.0000000000 0
    0.2978723404     0.2978723404     0.0000000000 0
    0.2872340426     0.2872340426     0.0000000000 0
    0.2765957447     0.2765957447     0.0000000000 0
    0.2659574468     0.2659574468     0.0000000000 0
    0.2553191489     0.2553191489     0.0000000000 0
    0.2446808511     0.2446808511     0.0000000000 0
    0.2340425532     0.2340425532     0.0000000000 0
    0.2234042553     0.2234042553     0.0000000000 0
    0.2127659574     0.2127659574     0.0000000000 0
    0.2021276596     0.2021276596     0.0000000000 0
    0.1914893617     0.1914893617     0.0000000000 0
    0.1808510638     0.1808510638     0.0000000000 0
    0.1702127660     0.1702127660     0.0000000000 0
    0.1595744681     0.1595744681     0.0000000000 0
    0.1489361702     0.1489361702     0.0000000000 0
    0.1382978723     0.1382978723     0.0000000000 0
    0.1276595745     0.1276595745     0.0000000000 0
    0.1170212766     0.1170212766     0.0000000000 0
    0.1063829787     0.1063829787     0.0000000000 0
    0.0957446809     0.0957446809     0.0000000000 0
    0.0851063830     0.0851063830     0.0000000000 0
    0.0744680851     0.0744680851     0.0000000000 0
    0.0638297872     0.0638297872     0.0000000000 0
    0.0531914894     0.0531914894     0.0000000000 0
    0.0425531915     0.0425531915     0.0000000000 0
    0.0319148936     0.0319148936     0.0000000000 0
    0.0212765957     0.0212765957     0.0000000000 0
    0.0106382979     0.0106382979     0.0000000000 0
    0.0000000000     0.0000000000     0.0000000000 0 \Gamma
    0.0000000000     0.0000000000     0.0454545455 0
    0.0000000000     0.0000000000     0.0909090909 0
    0.0000000000     0.0000000000     0.1363636364 0
    0.0000000000     0.0000000000     0.1818181818 0
    0.0000000000     0.0000000000     0.2272727273 0
    0.0000000000     0.0000000000     0.2727272727 0
    0.0000000000     0.0000000000     0.3181818182 0
    0.0000000000     0.0000000000     0.3636363636 0
    0.0000000000     0.0000000000     0.4090909091 0
    0.0000000000     0.0000000000     0.4545454545 0
    0.0000000000     0.0000000000     0.5000000000 0 Z
    0.0000000000     0.0151515152     0.5000000000 0
    0.0000000000     0.0303030303     0.5000000000 0
    0.0000000000     0.0454545455     0.5000000000 0
    0.0000000000     0.0606060606     0.5000000000 0
    0.0000000000     0.0757575758     0.5000000000 0
    0.0000000000     0.0909090909     0.5000000000 0
    0.0000000000     0.1060606061     0.5000000000 0
    0.0000000000     0.1212121212     0.5000000000 0
    0.0000000000     0.1363636364     0.5000000000 0
    0.0000000000     0.1515151515     0.5000000000 0
    0.0000000000     0.1666666667     0.5000000000 0
    0.0000000000     0.1818181818     0.5000000000 0
    0.0000000000     0.1969696970     0.5000000000 0
    0.0000000000     0.2121212121     0.5000000000 0
    0.0000000000     0.2272727273     0.5000000000 0
    0.0000000000     0.2424242424     0.5000000000 0
    0.0000000000     0.2575757576     0.5000000000 0
    0.0000000000     0.2727272727     0.5000000000 0
    0.0000000000     0.2878787879     0.5000000000 0
    0.0000000000     0.3030303030     0.5000000000 0
    0.0000000000     0.3181818182     0.5000000000 0
    0.0000000000     0.3333333333     0.5000000000 0
    0.0000000000     0.3484848485     0.5000000000 0
    0.0000000000     0.3636363636     0.5000000000 0
    0.0000000000     0.3787878788     0.5000000000 0
    0.0000000000     0.3939393939     0.5000000000 0
    0.0000000000     0.4090909091     0.5000000000 0
    0.0000000000     0.4242424242     0.5000000000 0
    0.0000000000     0.4393939394     0.5000000000 0
    0.0000000000     0.4545454545     0.5000000000 0
    0.0000000000     0.4696969697     0.5000000000 0
    0.0000000000     0.4848484848     0.5000000000 0
    0.0000000000     0.5000000000     0.5000000000 0 R
    0.0151515152     0.5000000000     0.5000000000 0
    0.0303030303     0.5000000000     0.5000000000 0
    0.0454545455     0.5000000000     0.5000000000 0
    0.0606060606     0.5000000000     0.5000000000 0
    0.0757575758     0.5000000000     0.5000000000 0
    0.0909090909     0.5000000000     0.5000000000 0
    0.1060606061     0.5000000000     0.5000000000 0
    0.1212121212     0.5000000000     0.5000000000 0
    0.1363636364     0.5000000000     0.5000000000 0
    0.1515151515     0.5000000000     0.5000000000 0
    0.1666666667     0.5000000000     0.5000000000 0
    0.1818181818     0.5000000000     0.5000000000 0
    0.1969696970     0.5000000000     0.5000000000 0
    0.2121212121     0.5000000000     0.5000000000 0
    0.2272727273     0.5000000000     0.5000000000 0
    0.2424242424     0.5000000000     0.5000000000 0
    0.2575757576     0.5000000000     0.5000000000 0
    0.2727272727     0.5000000000     0.5000000000 0
    0.2878787879     0.5000000000     0.5000000000 0
    0.3030303030     0.5000000000     0.5000000000 0
    0.3181818182     0.5000000000     0.5000000000 0
    0.3333333333     0.5000000000     0.5000000000 0
    0.3484848485     0.5000000000     0.5000000000 0
    0.3636363636     0.5000000000     0.5000000000 0
    0.3787878788     0.5000000000     0.5000000000 0
    0.3939393939     0.5000000000     0.5000000000 0
    0.4090909091     0.5000000000     0.5000000000 0
    0.4242424242     0.5000000000     0.5000000000 0
    0.4393939394     0.5000000000     0.5000000000 0
    0.4545454545     0.5000000000     0.5000000000 0
    0.4696969697     0.5000000000     0.5000000000 0
    0.4848484848     0.5000000000     0.5000000000 0
    0.5000000000     0.5000000000     0.5000000000 0 A
    0.4893617021     0.4893617021     0.5000000000 0
    0.4787234043     0.4787234043     0.5000000000 0
    0.4680851064     0.4680851064     0.5000000000 0
    0.4574468085     0.4574468085     0.5000000000 0
    0.4468085106     0.4468085106     0.5000000000 0
    0.4361702128     0.4361702128     0.5000000000 0
    0.4255319149     0.4255319149     0.5000000000 0
    0.4148936170     0.4148936170     0.5000000000 0
    0.4042553191     0.4042553191     0.5000000000 0
    0.3936170213     0.3936170213     0.5000000000 0
    0.3829787234     0.3829787234     0.5000000000 0
    0.3723404255     0.3723404255     0.5000000000 0
    0.3617021277     0.3617021277     0.5000000000 0
    0.3510638298     0.3510638298     0.5000000000 0
    0.3404255319     0.3404255319     0.5000000000 0
    0.3297872340     0.3297872340     0.5000000000 0
    0.3191489362     0.3191489362     0.5000000000 0
    0.3085106383     0.3085106383     0.5000000000 0
    0.2978723404     0.2978723404     0.5000000000 0
    0.2872340426     0.2872340426     0.5000000000 0
    0.2765957447     0.2765957447     0.5000000000 0
    0.2659574468     0.2659574468     0.5000000000 0
    0.2553191489     0.2553191489     0.5000000000 0
    0.2446808511     0.2446808511     0.5000000000 0
    0.2340425532     0.2340425532     0.5000000000 0
    0.2234042553     0.2234042553     0.5000000000 0
    0.2127659574     0.2127659574     0.5000000000 0
    0.2021276596     0.2021276596     0.5000000000 0
    0.1914893617     0.1914893617     0.5000000000 0
    0.1808510638     0.1808510638     0.5000000000 0
    0.1702127660     0.1702127660     0.5000000000 0
    0.1595744681     0.1595744681     0.5000000000 0
    0.1489361702     0.1489361702     0.5000000000 0
    0.1382978723     0.1382978723     0.5000000000 0
    0.1276595745     0.1276595745     0.5000000000 0
    0.1170212766     0.1170212766     0.5000000000 0
    0.1063829787     0.1063829787     0.5000000000 0
    0.0957446809     0.0957446809     0.5000000000 0
    0.0851063830     0.0851063830     0.5000000000 0
    0.0744680851     0.0744680851     0.5000000000 0
    0.0638297872     0.0638297872     0.5000000000 0
    0.0531914894     0.0531914894     0.5000000000 0
    0.0425531915     0.0425531915     0.5000000000 0
    0.0319148936     0.0319148936     0.5000000000 0
    0.0212765957     0.0212765957     0.5000000000 0
    0.0106382979     0.0106382979     0.5000000000 0
    0.0000000000     0.0000000000     0.5000000000 0 Z
    0.0000000000     0.5000000000     0.0000000000 0 X
    0.0000000000     0.5000000000     0.0454545455 0
    0.0000000000     0.5000000000     0.0909090909 0
    0.0000000000     0.5000000000     0.1363636364 0
    0.0000000000     0.5000000000     0.1818181818 0
    0.0000000000     0.5000000000     0.2272727273 0
    0.0000000000     0.5000000000     0.2727272727 0
    0.0000000000     0.5000000000     0.3181818182 0
    0.0000000000     0.5000000000     0.3636363636 0
    0.0000000000     0.5000000000     0.4090909091 0
    0.0000000000     0.5000000000     0.4545454545 0
    0.0000000000     0.5000000000     0.5000000000 0 R
    0.5000000000     0.5000000000     0.0000000000 0 M
    0.5000000000     0.5000000000     0.0454545455 0
    0.5000000000     0.5000000000     0.0909090909 0
    0.5000000000     0.5000000000     0.1363636364 0
    0.5000000000     0.5000000000     0.1818181818 0
    0.5000000000     0.5000000000     0.2272727273 0
    0.5000000000     0.5000000000     0.2727272727 0
    0.5000000000     0.5000000000     0.3181818182 0
    0.5000000000     0.5000000000     0.3636363636 0
    0.5000000000     0.5000000000     0.4090909091 0
    0.5000000000     0.5000000000     0.4545454545 0
    0.5000000000     0.5000000000     0.5000000000 0 A
