B12BeN2.cif                             
    1.000000000000000     
     5.2112894375553376   -0.0018319752044857   -0.0013229265317340
    -2.3547214094370990    4.6489598881750585    0.0013229265317747
    -2.3547171185206461    1.4474337186104516    4.4178871298914943
   Be   B    N 
     1    12     2
Direct
  0.4999999376351604  0.4999999376351604  0.5000000000000000
  0.6693431598492051  0.0032555296970138  0.0032550876766524
  0.9967456972771374  0.3306580760564026  0.0032553524265981
  0.3239609584625275  0.1973285662668813  0.1973273112621037
  0.8026730691999618  0.6760405951823818  0.1973274335199248
  0.1973281660914979  0.8026734790407907  0.3239608722907673
  0.9967451188278487  0.0032560328954453  0.3306572752514039
  0.0032560328954453  0.9967451188278488  0.6693427247485961
  0.8026734790407907  0.1973281660914979  0.6760391277092326
  0.1973285662668813  0.3239609584625275  0.8026726887378964
  0.6760405951823818  0.8026730691999618  0.8026725664800752
  0.0032555296970138  0.6693431598492051  0.9967449123233476
  0.3306580760564026  0.9967456972771374  0.9967446475734018
  0.6234271783354873  0.3765744351822614  0.3765756460936540
  0.3765744351822613  0.6234271783354873  0.6234243539063462
 
  0.00000000E+00  0.00000000E+00  0.00000000E+00
  0.00000000E+00  0.00000000E+00  0.00000000E+00
  0.00000000E+00  0.00000000E+00  0.00000000E+00
  0.00000000E+00  0.00000000E+00  0.00000000E+00
  0.00000000E+00  0.00000000E+00  0.00000000E+00
  0.00000000E+00  0.00000000E+00  0.00000000E+00
  0.00000000E+00  0.00000000E+00  0.00000000E+00
  0.00000000E+00  0.00000000E+00  0.00000000E+00
  0.00000000E+00  0.00000000E+00  0.00000000E+00
  0.00000000E+00  0.00000000E+00  0.00000000E+00
  0.00000000E+00  0.00000000E+00  0.00000000E+00
  0.00000000E+00  0.00000000E+00  0.00000000E+00
  0.00000000E+00  0.00000000E+00  0.00000000E+00
  0.00000000E+00  0.00000000E+00  0.00000000E+00
  0.00000000E+00  0.00000000E+00  0.00000000E+00
