B12BeN2.cif
1.0
     5.2350000000       0.0000000000       0.0000000000
    -2.3637930064       4.6709429051       0.0000000000
    -2.3637930064       1.4530126249       4.4391960911
Be B N
1 12 2
Direct
     0.500000000     0.500000000     0.500000000  !Be
     0.669250000     0.003670000     0.003670000  !B
     0.996330000     0.330750000     0.003670000  !B
     0.323600000     0.197060000     0.197060000  !B
     0.802940000     0.676400000     0.197060000  !B
     0.197060000     0.802950000     0.323600000  !B
     0.996330000     0.003670000     0.330750000  !B
     0.003670000     0.996330000     0.669250000  !B
     0.802950000     0.197060000     0.676400000  !B
     0.197060000     0.323600000     0.802940000  !B
     0.676400000     0.802940000     0.802940000  !B
     0.003670000     0.669250000     0.996330000  !B
     0.330750000     0.996330000     0.996330000  !B
     0.623700000     0.376300000     0.376300000  !N
     0.376300000     0.623700000     0.623700000  !N


! Created by the Bilbao Crystallographic Server
! http://www.cryst.ehu.es
! Date: 24/05/2024 19:27:08

