B12BeN2.cif                             
    1.000000000000000     
     5.2112894375553376   -0.0018319752044857   -0.0013229265317340
    -2.3547214094370990    4.6489598881750585    0.0013229265317747
    -2.3547171185206461    1.4474337186104516    4.4178871298914943
   Be   B    N 
     1    12     2
Direct
  0.4999999376351596  0.4999999376351596  0.5000000000000000
  0.6693431598492054  0.0032555296970145  0.0032550876766493
  0.9967456972771345  0.3306580760564017  0.0032553524265992
  0.3239609584625285  0.1973285662668829  0.1973273112621072
  0.8026730691999617  0.6760405951823785  0.1973274335199235
  0.1973281660914949  0.8026734790407914  0.3239608722907690
  0.9967451188278460  0.0032560328954432  0.3306572752514043
  0.0032560328954432  0.9967451188278460  0.6693427247485957
  0.8026734790407914  0.1973281660914949  0.6760391277092310
  0.1973285662668829  0.3239609584625285  0.8026726887378999
  0.6760405951823785  0.8026730691999617  0.8026725664800765
  0.0032555296970145  0.6693431598492054  0.9967449123233507
  0.3306580760564017  0.9967456972771345  0.9967446475734008
  0.6234271783354899  0.3765744351822633  0.3765756460936558
  0.3765744351822633  0.6234271783354899  0.6234243539063442
 
  0.00000000E+00  0.00000000E+00  0.00000000E+00
  0.00000000E+00  0.00000000E+00  0.00000000E+00
  0.00000000E+00  0.00000000E+00  0.00000000E+00
  0.00000000E+00  0.00000000E+00  0.00000000E+00
  0.00000000E+00  0.00000000E+00  0.00000000E+00
  0.00000000E+00  0.00000000E+00  0.00000000E+00
  0.00000000E+00  0.00000000E+00  0.00000000E+00
  0.00000000E+00  0.00000000E+00  0.00000000E+00
  0.00000000E+00  0.00000000E+00  0.00000000E+00
  0.00000000E+00  0.00000000E+00  0.00000000E+00
  0.00000000E+00  0.00000000E+00  0.00000000E+00
  0.00000000E+00  0.00000000E+00  0.00000000E+00
  0.00000000E+00  0.00000000E+00  0.00000000E+00
  0.00000000E+00  0.00000000E+00  0.00000000E+00
  0.00000000E+00  0.00000000E+00  0.00000000E+00
