SYSTEM=B12BeN2

# General settings:
ENCUT  = 500
PREC   = Accurate
ISTART = 0
ICHARG = 2
LCHARG = .FALSE.
LWAVE  = .TRUE.

# Parallel
#NPAR = 4

# HSE06
LHFCALC  = .TRUE. 
HFSCREEN = 0.2 
AEXX     = 0.25
ALGO     = All
GGA      = PE

# Ionic relaxation:
ISIF   = 3
NSW    = 0
IBRION = 2
EDIFFG = -1.0E-2

# Symmetry:
#ISYM = 0

# SCF:
EDIFF  = 1E-5
ISMEAR = 0
SIGMA  = 0.01
