Automatically generated mesh
      302
Reciprocal lattice
    0.00000000000000    0.00000000000000    0.00000000000000             1
    0.12500000000000    0.00000000000000    0.00000000000000             6
    0.25000000000000    0.00000000000000    0.00000000000000             6
    0.37500000000000    0.00000000000000    0.00000000000000             6
    0.50000000000000    0.00000000000000    0.00000000000000             3
    0.12500000000000    0.12500000000000    0.00000000000000             6
    0.25000000000000    0.12500000000000    0.00000000000000            12
    0.37500000000000    0.12500000000000    0.00000000000000            12
    0.50000000000000    0.12500000000000    0.00000000000000            12
   -0.37500000000000    0.12500000000000    0.00000000000000            12
   -0.25000000000000    0.12500000000000    0.00000000000000            12
   -0.12500000000000    0.12500000000000    0.00000000000000             6
    0.25000000000000    0.25000000000000    0.00000000000000             6
    0.37500000000000    0.25000000000000    0.00000000000000            12
    0.50000000000000    0.25000000000000    0.00000000000000            12
   -0.37500000000000    0.25000000000000    0.00000000000000            12
   -0.25000000000000    0.25000000000000    0.00000000000000             6
    0.37500000000000    0.37500000000000    0.00000000000000             6
    0.50000000000000    0.37500000000000    0.00000000000000            12
   -0.37500000000000    0.37500000000000    0.00000000000000             6
    0.50000000000000    0.50000000000000    0.00000000000000             3
    0.12500000000000    0.12500000000000    0.12500000000000             6
    0.25000000000000    0.12500000000000    0.12500000000000             6
    0.37500000000000    0.12500000000000    0.12500000000000             6
    0.50000000000000    0.12500000000000    0.12500000000000             6
   -0.37500000000000    0.12500000000000    0.12500000000000             6
   -0.25000000000000    0.12500000000000    0.12500000000000             6
   -0.12500000000000    0.12500000000000    0.12500000000000             2
    0.12500000000000    0.25000000000000    0.12500000000000            12
    0.25000000000000    0.25000000000000    0.12500000000000            12
    0.37500000000000    0.25000000000000    0.12500000000000            12
    0.50000000000000    0.25000000000000    0.12500000000000            12
   -0.37500000000000    0.25000000000000    0.12500000000000            12
   -0.25000000000000    0.25000000000000    0.12500000000000             6
    0.12500000000000    0.37500000000000    0.12500000000000            12
    0.25000000000000    0.37500000000000    0.12500000000000            12
    0.37500000000000    0.37500000000000    0.12500000000000            12
    0.50000000000000    0.37500000000000    0.12500000000000            12
   -0.37500000000000    0.37500000000000    0.12500000000000             6
    0.12500000000000    0.50000000000000    0.12500000000000             6
    0.25000000000000    0.50000000000000    0.12500000000000            12
    0.37500000000000    0.50000000000000    0.12500000000000            12
    0.50000000000000    0.50000000000000    0.12500000000000             6
    0.25000000000000   -0.37500000000000    0.12500000000000            12
    0.37500000000000   -0.37500000000000    0.12500000000000             6
    0.25000000000000   -0.25000000000000    0.12500000000000             6
    0.25000000000000    0.25000000000000    0.25000000000000             6
    0.37500000000000    0.25000000000000    0.25000000000000             6
    0.50000000000000    0.25000000000000    0.25000000000000             6
   -0.37500000000000    0.25000000000000    0.25000000000000             6
   -0.25000000000000    0.25000000000000    0.25000000000000             2
    0.25000000000000    0.37500000000000    0.25000000000000            12
    0.37500000000000    0.37500000000000    0.25000000000000            12
    0.50000000000000    0.37500000000000    0.25000000000000            12
   -0.37500000000000    0.37500000000000    0.25000000000000             6
    0.25000000000000    0.50000000000000    0.25000000000000             6
    0.37500000000000    0.50000000000000    0.25000000000000            12
    0.50000000000000    0.50000000000000    0.25000000000000             6
    0.37500000000000   -0.37500000000000    0.25000000000000             6
    0.37500000000000    0.37500000000000    0.37500000000000             6
    0.50000000000000    0.37500000000000    0.37500000000000             6
   -0.37500000000000    0.37500000000000    0.37500000000000             2
    0.37500000000000    0.50000000000000    0.37500000000000             6
    0.50000000000000    0.50000000000000    0.37500000000000             6
    0.50000000000000    0.50000000000000    0.50000000000000             1
    0.0000000000     0.0000000000     0.0000000000 0 \Gamma
    0.0112141086     0.0112141086     0.0000000000 0
    0.0224282172     0.0224282172     0.0000000000 0
    0.0336423258     0.0336423258     0.0000000000 0
    0.0448564344     0.0448564344     0.0000000000 0
    0.0560705430     0.0560705430     0.0000000000 0
    0.0672846516     0.0672846516     0.0000000000 0
    0.0784987602     0.0784987602     0.0000000000 0
    0.0897128688     0.0897128688     0.0000000000 0
    0.1009269774     0.1009269774     0.0000000000 0
    0.1121410860     0.1121410860     0.0000000000 0
    0.1233551946     0.1233551946     0.0000000000 0
    0.1345693032     0.1345693032     0.0000000000 0
    0.1457834118     0.1457834118     0.0000000000 0
    0.1569975204     0.1569975204     0.0000000000 0
    0.1682116290     0.1682116290     0.0000000000 0
    0.1794257376     0.1794257376     0.0000000000 0
    0.1906398462     0.1906398462     0.0000000000 0
    0.2018539548     0.2018539548     0.0000000000 0
    0.2130680634     0.2130680634     0.0000000000 0
    0.2242821721     0.2242821721     0.0000000000 0
    0.2354962807     0.2354962807     0.0000000000 0
    0.2467103893     0.2467103893     0.0000000000 0
    0.2579244979     0.2579244979     0.0000000000 0
    0.2691386065     0.2691386065     0.0000000000 0
    0.2803527151     0.2803527151     0.0000000000 0
    0.2915668237     0.2915668237     0.0000000000 0
    0.3027809323     0.3027809323     0.0000000000 0
    0.3139950409     0.3139950409     0.0000000000 0
    0.3252091495     0.3252091495     0.0000000000 0
    0.3364232581     0.3364232581     0.0000000000 0
    0.3476373667     0.3476373667     0.0000000000 0
    0.3588514753     0.3588514753     0.0000000000 0
    0.3700655839     0.3700655839     0.0000000000 0
    0.3812796925     0.3812796925     0.0000000000 0 C
   -0.3812796925     0.6187203075     0.0000000000 0 C_2
   -0.3944708378     0.6055291622     0.0000000000 0
   -0.4076619830     0.5923380170     0.0000000000 0
   -0.4208531283     0.5791468717     0.0000000000 0
   -0.4340442736     0.5659557264     0.0000000000 0
   -0.4472354189     0.5527645811     0.0000000000 0
   -0.4604265642     0.5395734358     0.0000000000 0
   -0.4736177094     0.5263822906     0.0000000000 0
   -0.4868088547     0.5131911453     0.0000000000 0
   -0.5000000000     0.5000000000     0.0000000000 0 Y_2
   -0.4843750000     0.4843750000     0.0000000000 0
   -0.4687500000     0.4687500000     0.0000000000 0
   -0.4531250000     0.4531250000     0.0000000000 0
   -0.4375000000     0.4375000000     0.0000000000 0
   -0.4218750000     0.4218750000     0.0000000000 0
   -0.4062500000     0.4062500000     0.0000000000 0
   -0.3906250000     0.3906250000     0.0000000000 0
   -0.3750000000     0.3750000000     0.0000000000 0
   -0.3593750000     0.3593750000     0.0000000000 0
   -0.3437500000     0.3437500000     0.0000000000 0
   -0.3281250000     0.3281250000     0.0000000000 0
   -0.3125000000     0.3125000000     0.0000000000 0
   -0.2968750000     0.2968750000     0.0000000000 0
   -0.2812500000     0.2812500000     0.0000000000 0
   -0.2656250000     0.2656250000     0.0000000000 0
   -0.2500000000     0.2500000000     0.0000000000 0
   -0.2343750000     0.2343750000     0.0000000000 0
   -0.2187500000     0.2187500000     0.0000000000 0
   -0.2031250000     0.2031250000     0.0000000000 0
   -0.1875000000     0.1875000000     0.0000000000 0
   -0.1718750000     0.1718750000     0.0000000000 0
   -0.1562500000     0.1562500000     0.0000000000 0
   -0.1406250000     0.1406250000     0.0000000000 0
   -0.1250000000     0.1250000000     0.0000000000 0
   -0.1093750000     0.1093750000     0.0000000000 0
   -0.0937500000     0.0937500000     0.0000000000 0
   -0.0781250000     0.0781250000     0.0000000000 0
   -0.0625000000     0.0625000000     0.0000000000 0
   -0.0468750000     0.0468750000     0.0000000000 0
   -0.0312500000     0.0312500000     0.0000000000 0
   -0.0156250000     0.0156250000     0.0000000000 0
    0.0000000000     0.0000000000     0.0000000000 0 \Gamma
   -0.0172413793     0.0172413793     0.0172413793 0
   -0.0344827586     0.0344827586     0.0344827586 0
   -0.0517241379     0.0517241379     0.0517241379 0
   -0.0689655172     0.0689655172     0.0689655172 0
   -0.0862068966     0.0862068966     0.0862068966 0
   -0.1034482759     0.1034482759     0.1034482759 0
   -0.1206896552     0.1206896552     0.1206896552 0
   -0.1379310345     0.1379310345     0.1379310345 0
   -0.1551724138     0.1551724138     0.1551724138 0
   -0.1724137931     0.1724137931     0.1724137931 0
   -0.1896551724     0.1896551724     0.1896551724 0
   -0.2068965517     0.2068965517     0.2068965517 0
   -0.2241379310     0.2241379310     0.2241379310 0
   -0.2413793103     0.2413793103     0.2413793103 0
   -0.2586206897     0.2586206897     0.2586206897 0
   -0.2758620690     0.2758620690     0.2758620690 0
   -0.2931034483     0.2931034483     0.2931034483 0
   -0.3103448276     0.3103448276     0.3103448276 0
   -0.3275862069     0.3275862069     0.3275862069 0
   -0.3448275862     0.3448275862     0.3448275862 0
   -0.3620689655     0.3620689655     0.3620689655 0
   -0.3793103448     0.3793103448     0.3793103448 0
   -0.3965517241     0.3965517241     0.3965517241 0
   -0.4137931034     0.4137931034     0.4137931034 0
   -0.4310344828     0.4310344828     0.4310344828 0
   -0.4482758621     0.4482758621     0.4482758621 0
   -0.4655172414     0.4655172414     0.4655172414 0
   -0.4827586207     0.4827586207     0.4827586207 0
   -0.5000000000     0.5000000000     0.5000000000 0 M_2
   -0.4881280030     0.5118719970     0.5000000000 0
   -0.4762560060     0.5237439940     0.5000000000 0
   -0.4643840090     0.5356159910     0.5000000000 0
   -0.4525120120     0.5474879880     0.5000000000 0
   -0.4406400150     0.5593599850     0.5000000000 0
   -0.4287680180     0.5712319820     0.5000000000 0
   -0.4168960210     0.5831039790     0.5000000000 0
   -0.4050240240     0.5949759760     0.5000000000 0
   -0.3931520270     0.6068479730     0.5000000000 0
   -0.3812800300     0.6187199700     0.5000000000 0
   -0.3694080329     0.6305919671     0.5000000000 0
   -0.3575360359     0.6424639641     0.5000000000 0
   -0.3456640389     0.6543359611     0.5000000000 0
   -0.3337920419     0.6662079581     0.5000000000 0
   -0.3219200449     0.6780799551     0.5000000000 0
   -0.3100480479     0.6899519521     0.5000000000 0
   -0.2981760509     0.7018239491     0.5000000000 0
   -0.2863040539     0.7136959461     0.5000000000 0
   -0.2744320569     0.7255679431     0.5000000000 0
   -0.2625600599     0.7374399401     0.5000000000 0 D
    0.2625600599     0.2625600599     0.5000000000 0 D_2
    0.2511444051     0.2511444051     0.5000000000 0
    0.2397287503     0.2397287503     0.5000000000 0
    0.2283130956     0.2283130956     0.5000000000 0
    0.2168974408     0.2168974408     0.5000000000 0
    0.2054817860     0.2054817860     0.5000000000 0
    0.1940661312     0.1940661312     0.5000000000 0
    0.1826504765     0.1826504765     0.5000000000 0
    0.1712348217     0.1712348217     0.5000000000 0
    0.1598191669     0.1598191669     0.5000000000 0
    0.1484035121     0.1484035121     0.5000000000 0
    0.1369878573     0.1369878573     0.5000000000 0
    0.1255722026     0.1255722026     0.5000000000 0
    0.1141565478     0.1141565478     0.5000000000 0
    0.1027408930     0.1027408930     0.5000000000 0
    0.0913252382     0.0913252382     0.5000000000 0
    0.0799095834     0.0799095834     0.5000000000 0
    0.0684939287     0.0684939287     0.5000000000 0
    0.0570782739     0.0570782739     0.5000000000 0
    0.0456626191     0.0456626191     0.5000000000 0
    0.0342469643     0.0342469643     0.5000000000 0
    0.0228313096     0.0228313096     0.5000000000 0
    0.0114156548     0.0114156548     0.5000000000 0
    0.0000000000     0.0000000000     0.5000000000 0 A
    0.0000000000     0.0000000000     0.4814814815 0
    0.0000000000     0.0000000000     0.4629629630 0
    0.0000000000     0.0000000000     0.4444444444 0
    0.0000000000     0.0000000000     0.4259259259 0
    0.0000000000     0.0000000000     0.4074074074 0
    0.0000000000     0.0000000000     0.3888888889 0
    0.0000000000     0.0000000000     0.3703703704 0
    0.0000000000     0.0000000000     0.3518518519 0
    0.0000000000     0.0000000000     0.3333333333 0
    0.0000000000     0.0000000000     0.3148148148 0
    0.0000000000     0.0000000000     0.2962962963 0
    0.0000000000     0.0000000000     0.2777777778 0
    0.0000000000     0.0000000000     0.2592592593 0
    0.0000000000     0.0000000000     0.2407407407 0
    0.0000000000     0.0000000000     0.2222222222 0
    0.0000000000     0.0000000000     0.2037037037 0
    0.0000000000     0.0000000000     0.1851851852 0
    0.0000000000     0.0000000000     0.1666666667 0
    0.0000000000     0.0000000000     0.1481481481 0
    0.0000000000     0.0000000000     0.1296296296 0
    0.0000000000     0.0000000000     0.1111111111 0
    0.0000000000     0.0000000000     0.0925925926 0
    0.0000000000     0.0000000000     0.0740740741 0
    0.0000000000     0.0000000000     0.0555555556 0
    0.0000000000     0.0000000000     0.0370370370 0
    0.0000000000     0.0000000000     0.0185185185 0
    0.0000000000     0.0000000000     0.0000000000 0 \Gamma
    0.0000000000     0.5000000000     0.5000000000 0 L_2
    0.0000000000     0.4843750000     0.4843750000 0
    0.0000000000     0.4687500000     0.4687500000 0
    0.0000000000     0.4531250000     0.4531250000 0
    0.0000000000     0.4375000000     0.4375000000 0
    0.0000000000     0.4218750000     0.4218750000 0
    0.0000000000     0.4062500000     0.4062500000 0
    0.0000000000     0.3906250000     0.3906250000 0
    0.0000000000     0.3750000000     0.3750000000 0
    0.0000000000     0.3593750000     0.3593750000 0
    0.0000000000     0.3437500000     0.3437500000 0
    0.0000000000     0.3281250000     0.3281250000 0
    0.0000000000     0.3125000000     0.3125000000 0
    0.0000000000     0.2968750000     0.2968750000 0
    0.0000000000     0.2812500000     0.2812500000 0
    0.0000000000     0.2656250000     0.2656250000 0
    0.0000000000     0.2500000000     0.2500000000 0
    0.0000000000     0.2343750000     0.2343750000 0
    0.0000000000     0.2187500000     0.2187500000 0
    0.0000000000     0.2031250000     0.2031250000 0
    0.0000000000     0.1875000000     0.1875000000 0
    0.0000000000     0.1718750000     0.1718750000 0
    0.0000000000     0.1562500000     0.1562500000 0
    0.0000000000     0.1406250000     0.1406250000 0
    0.0000000000     0.1250000000     0.1250000000 0
    0.0000000000     0.1093750000     0.1093750000 0
    0.0000000000     0.0937500000     0.0937500000 0
    0.0000000000     0.0781250000     0.0781250000 0
    0.0000000000     0.0625000000     0.0625000000 0
    0.0000000000     0.0468750000     0.0468750000 0
    0.0000000000     0.0312500000     0.0312500000 0
    0.0000000000     0.0156250000     0.0156250000 0
    0.0000000000     0.0000000000     0.0000000000 0 \Gamma
    0.0000000000     0.0185185185     0.0000000000 0
    0.0000000000     0.0370370370     0.0000000000 0
    0.0000000000     0.0555555556     0.0000000000 0
    0.0000000000     0.0740740741     0.0000000000 0
    0.0000000000     0.0925925926     0.0000000000 0
    0.0000000000     0.1111111111     0.0000000000 0
    0.0000000000     0.1296296296     0.0000000000 0
    0.0000000000     0.1481481481     0.0000000000 0
    0.0000000000     0.1666666667     0.0000000000 0
    0.0000000000     0.1851851852     0.0000000000 0
    0.0000000000     0.2037037037     0.0000000000 0
    0.0000000000     0.2222222222     0.0000000000 0
    0.0000000000     0.2407407407     0.0000000000 0
    0.0000000000     0.2592592593     0.0000000000 0
    0.0000000000     0.2777777778     0.0000000000 0
    0.0000000000     0.2962962963     0.0000000000 0
    0.0000000000     0.3148148148     0.0000000000 0
    0.0000000000     0.3333333333     0.0000000000 0
    0.0000000000     0.3518518519     0.0000000000 0
    0.0000000000     0.3703703704     0.0000000000 0
    0.0000000000     0.3888888889     0.0000000000 0
    0.0000000000     0.4074074074     0.0000000000 0
    0.0000000000     0.4259259259     0.0000000000 0
    0.0000000000     0.4444444444     0.0000000000 0
    0.0000000000     0.4629629630     0.0000000000 0
    0.0000000000     0.4814814815     0.0000000000 0
    0.0000000000     0.5000000000     0.0000000000 0 V_2
